qbf_easy_train/easy_2531_SAT.qdimacs
p cnf 21 47
a 9 14 0
e 1 2 3 4 5 6 7 8 10 11 12 13 15 16 17 18 19 20 21 0
3 1 0
3 -2 0
-1 2 -3 0
-6 4 0
-6 -5 0
-4 5 6 0
7 8 -9 0
-7 -8 -9 0
7 -8 9 0
-7 8 9 0
-10 -1 0
-10 -5 0
1 5 10 0
-11 9 0
-11 10 0
-9 -10 11 0
12 6 0
12 11 0
-6 -11 -12 0
-13 3 0
-13 12 0
-3 -12 13 0
-15 7 0
-15 -4 0
-7 4 15 0
-16 14 0
-16 15 0
-14 -15 16 0
13 -16 -17 0
-13 16 -17 0
13 16 17 0
-13 -16 17 0
-19 -1 0
-19 18 0
1 -18 19 0
-7 19 -20 0
7 -19 -20 0
-7 -19 20 0
7 19 20 0
21 -17 0
21 20 0
17 -20 -21 0
8 -20 -10 14 0
11 -21 -1 0
-9 -5 -8 14 16 -1 0
-1 -21 6 -3 -13 0
21 0
