sat_easy_train/easy_2531_SAT.dimacs
p cnf 125 418
3 -1 0
3 -2 0
1 2 -3 0
3 -4 -5 0
-3 4 -5 0
3 4 5 0
-3 -4 5 0
-8 -7 0
-8 -1 0
7 1 8 0
8 4 -9 0
-8 -4 -9 0
8 -4 9 0
-8 4 9 0
-6 -9 -10 0
6 9 -10 0
-6 9 10 0
6 -9 10 0
11 -5 0
11 10 0
5 -10 -11 0
-14 -12 0
-14 13 0
12 -13 14 0
2 -6 -15 0
-2 6 -15 0
2 6 15 0
-2 -6 15 0
16 15 0
16 5 0
-15 -5 -16 0
17 -16 0
17 -2 0
16 2 -17 0
14 17 -18 0
-14 -17 -18 0
14 -17 18 0
-14 17 18 0
-19 11 0
-19 18 0
-11 -18 19 0
21 20 0
21 3 0
-20 -3 -21 0
23 14 0
23 -22 0
-14 22 -23 0
-21 23 -24 0
21 -23 -24 0
-21 -23 24 0
21 23 24 0
6 -14 -25 0
-6 14 -25 0
6 14 25 0
-6 -14 25 0
26 27 -28 0
-26 -27 -28 0
26 -27 28 0
-26 27 28 0
-25 -28 -29 0
25 28 -29 0
-25 28 29 0
25 -28 29 0
24 -29 -30 0
-24 29 -30 0
24 29 30 0
-24 -29 30 0
-31 19 0
-31 -30 0
-19 30 31 0
32 26 0
32 20 0
-26 -20 -32 0
33 -28 0
33 -32 0
28 32 -33 0
32 25 -34 0
-32 -25 -34 0
32 -25 34 0
-32 25 34 0
33 34 -35 0
-33 -34 -35 0
33 -34 35 0
-33 34 35 0
38 -36 0
38 37 0
36 -37 -38 0
-39 -35 0
-39 -38 0
35 38 39 0
-39 20 -40 0
39 -20 -40 0
-39 -20 40 0
39 20 40 0
-31 -40 -41 0
31 40 -41 0
-31 40 41 0
31 -40 41 0
-43 -10 0
-43 42 0
10 -42 43 0
-20 24 -44 0
20 -24 -44 0
-20 -24 44 0
20 24 44 0
-45 -43 0
-45 44 0
43 -44 45 0
-46 41 0
-46 -45 0
-41 45 46 0
47 4 0
47 3 0
-4 -3 -47 0
48 47 0
48 -10 0
-47 10 -48 0
36 -48 -49 0
-36 48 -49 0
36 48 49 0
-36 -48 49 0
-2 -36 -50 0
2 36 -50 0
-2 36 50 0
2 -36 50 0
51 36 0
51 -50 0
-36 50 -51 0
53 51 0
53 -52 0
-51 52 -53 0
54 -53 0
54 -3 0
53 3 -54 0
-55 -49 0
-55 54 0
49 -54 55 0
-56 -46 0
-56 -55 0
46 55 56 0
57 37 0
57 5 0
-37 -5 -57 0
-58 2 0
-58 7 0
-2 -7 58 0
58 -38 -59 0
-58 38 -59 0
58 38 59 0
-58 -38 59 0
60 -59 0
60 -38 0
59 38 -60 0
-57 -60 -61 0
57 60 -61 0
-57 60 61 0
57 -60 61 0
-62 24 0
-62 -42 0
-24 42 62 0
-61 -62 -63 0
61 62 -63 0
-61 62 63 0
61 -62 63 0
64 -37 0
64 -37 0
37 -64 0
65 64 0
65 -28 0
-64 28 -65 0
66 63 0
66 65 0
-63 -65 -66 0
-67 -58 0
-67 13 0
58 -13 67 0
-66 67 -68 0
66 -67 -68 0
-66 -67 68 0
66 67 68 0
69 -28 0
69 26 0
28 -26 -69 0
-70 21 0
-70 50 0
-21 -50 70 0
71 69 0
71 70 0
-69 -70 -71 0
72 4 0
72 -58 0
-4 58 -72 0
13 72 -73 0
-13 -72 -73 0
13 -72 73 0
-13 72 73 0
74 -71 0
74 73 0
71 -73 -74 0
6 75 0
-6 75 0
-23 -76 -77 0
23 76 -77 0
-23 76 77 0
23 -76 77 0
78 75 0
78 77 0
-75 -77 -78 0
79 74 0
79 78 0
-74 -78 -79 0
80 68 0
80 79 0
-68 -79 -80 0
-81 56 0
-81 80 0
-56 -80 81 0
8 37 -82 0
-8 -37 -82 0
8 -37 82 0
-8 37 82 0
-83 -14 0
-83 64 0
14 -64 83 0
-52 83 -84 0
52 -83 -84 0
-52 -83 84 0
52 83 84 0
-85 20 0
-85 -84 0
-20 84 85 0
86 85 0
86 28 0
-85 -28 -86 0
-87 -25 0
-87 83 0
25 -83 87 0
-88 29 0
-88 -23 0
-29 23 88 0
-87 88 -89 0
87 -88 -89 0
-87 -88 89 0
87 88 89 0
90 36 0
90 -36 0
-91 -29 0
-91 -90 0
29 90 91 0
33 -10 -92 0
-33 10 -92 0
33 10 92 0
-33 -10 92 0
-93 -91 0
-93 92 0
91 -92 93 0
89 -93 -94 0
-89 93 -94 0
89 93 94 0
-89 -93 94 0
12 36 -95 0
-12 -36 -95 0
12 -36 95 0
-12 36 95 0
96 -64 0
96 95 0
64 -95 -96 0
96 64 -97 0
-96 -64 -97 0
96 -64 97 0
-96 64 97 0
-98 94 0
-98 97 0
-94 -97 98 0
99 -86 0
99 98 0
86 -98 -99 0
-82 -99 -100 0
82 99 -100 0
-82 99 100 0
82 -99 100 0
81 -100 -101 0
-81 100 -101 0
81 100 101 0
-81 -100 101 0
102 -33 0
102 -15 0
33 15 -102 0
37 22 -103 0
-37 -22 -103 0
37 -22 103 0
-37 22 103 0
-104 -102 0
-104 103 0
102 -103 104 0
15 -95 -105 0
-15 95 -105 0
15 95 105 0
-15 -95 105 0
53 -12 -106 0
-53 12 -106 0
53 12 106 0
-53 -12 106 0
-107 105 0
-107 -106 0
-105 106 107 0
-108 21 0
-108 -37 0
-21 37 108 0
107 -108 -109 0
-107 108 -109 0
107 108 109 0
-107 -108 109 0
-110 16 0
-110 -47 0
-16 47 110 0
-111 109 0
-111 -110 0
-109 110 111 0
-112 -104 0
-112 111 0
104 -111 112 0
113 -101 0
113 112 0
101 -112 -113 0
25 85 -114 0
-25 -85 -114 0
25 -85 114 0
-25 85 114 0
115 -114 0
115 -69 0
114 69 -115 0
116 95 0
116 26 0
-95 -26 -116 0
117 116 0
117 -69 0
-116 69 -117 0
-118 -115 0
-118 -117 0
115 117 118 0
119 -90 0
119 -115 0
90 115 -119 0
120 -23 0
120 -22 0
23 22 -120 0
-119 120 -121 0
119 -120 -121 0
-119 -120 121 0
119 120 121 0
-122 36 0
-122 -116 0
-36 116 122 0
-123 121 0
-123 122 0
-121 -122 123 0
124 -118 0
124 -123 0
118 123 -124 0
125 -113 0
125 124 0
113 -124 -125 0
41 33 25 32 0
-71 94 -77 106 -89 0
1 -73 101 -36 -48 0
-27 71 0
46 -72 0
72 97 -37 0
117 -28 44 0
71 -58 -46 -116 0
-26 -63 -70 19 -84 -86 0
32 -38 -26 0
42 -16 0
-6 81 44 -95 7 -91 0
50 81 53 -5 0
-99 -25 106 0
-70 -77 3 -80 65 0
-45 -23 -35 71 0
-20 97 17 -87 40 -82 0
-88 75 121 -25 47 61 0
-107 -49 -22 63 -43 0
-40 36 5 0
28 47 0
26 -121 -113 0
36 -100 -86 -38 95 0
106 -81 53 109 -114 96 0
59 67 56 82 7 55 0
-10 62 0
112 -117 12 0
-90 -41 -87 -71 0
3 114 19 27 61 0
-7 -56 25 -17 95 0
-7 64 47 44 71 0
110 116 0
115 -94 -1 -83 -109 0
-119 37 5 123 -23 0
-16 32 -99 -43 -84 -92 0
-31 -87 25 -89 61 0
39 7 0
-60 85 0
23 43 -68 107 59 0
-68 64 59 -54 118 0
17 -54 97 -89 49 0
73 -6 61 -27 45 0
-95 -107 -46 -61 85 0
-30 22 0
-89 61 93 28 0
-85 18 49 -47 -117 0
-87 -40 -4 116 0
106 27 -51 0
-97 120 69 0
87 117 -102 -44 0
94 -98 -30 122 -71 0
79 46 -17 0
-76 -86 40 -49 0
-123 101 110 43 -32 89 0
125 0
